7 
4 
5 
8 
11 
8 
8 
5 
11 
8 
12 
5 
10 
4 
5 
9 
11 
4 
7 
5 
8 
3 
11 
13 
10 
3 
6 
8 
15 
5 
5 
4 
2 
12 
6 
7 
9 
9 
5 
9 
11 
9 
6 
8 
10 
7 
15 
11 
9 
10 
5 
5 
9 
7 
7 
8 
8 
7 
5 
10 
11 
8 
6 
7 
10 
4 
9 
7 
7 
6 
7 
13 
6 
5 
3 
8 
8 
12 
6 
8 
8 
12 
7 
8 
9 
6 
6 
7 
5 
2 
11 
7 
6 
8 
6 
9 
12 
10 
6 
13 
